#######################################
### Exact MIP solver for the HHCRSP ###
#######################################
-- Instance file: ../instances-HHCRSP/InstanzVNS_HCSRP_100_5.txt
-- Max threads: 1
-- Time limit: 30 seconds
-- Use initial solution: No
Instance: Skills statistics exported.
Trivial flow violations prevented generating 49966 variables.
Model exported.
SKIP_OPT flag set. Exiting.

Welcome to IBM(R) ILOG(R) CPLEX(R) Interactive Optimizer 20.1.0.0
  with Simplex, Mixed Integer & Barrier Optimizers
5725-A06 5725-A29 5724-Y48 5724-Y49 5724-Y54 5724-Y55 5655-Y21
Copyright IBM Corp. 1988, 2020.  All Rights Reserved.

Type 'help' for a list of available commands.
Type 'help' followed by a command name for more
information on commands.

CPLEX> Problem 'model.lp' read.
Read time = 0.81 sec. (48.34 ticks)
CPLEX> Problem changed to LP.
CPLEX> Version identifier: 20.1.0.0 | 2020-11-10 | 9bedb6d68
Parallel mode: deterministic, using up to 8 threads for concurrent optimization:
 * Starting dual Simplex on 1 thread...
 * Starting Barrier on 6 threads...
 * Starting primal Simplex on 1 thread...
Tried aggregator 1 time.
LP Presolve eliminated 50245 rows and 1375 columns.
Reduced LP has 74415 rows, 57702 columns, and 1355722 nonzeros.
Presolve time = 0.72 sec. (411.27 ticks)
Symmetry aggregator did 86150 additional substitutions.
Initializing dual steep norms . . .

Iteration log . . .
Iteration:     1   Dual objective     =             1.333333
Iteration:   474   Dual objective     =           248.008837

Dual crossover.
  Dual:  Fixing 468 variables.
      467 DMoves:  Infeasibility  1.46493942e-13  Objective  2.52904173e+02
        0 DMoves:  Infeasibility  6.73905513e-14  Objective  2.52904173e+02
  Dual:  Pushed 29, exchanged 439.
  Primal:  Fixing 169 variables.
      168 PMoves:  Infeasibility  1.33226763e-15  Objective  2.52904173e+02
        0 PMoves:  Infeasibility  8.82627305e-15  Objective  2.52904173e+02
  Primal:  Pushed 121, exchanged 48.

Dual simplex solved model.


Dual simplex - Optimal:  Objective =  2.5290417333e+02
Solution time =    1.02 sec.  Iterations = 551 (0)
Deterministic time = 759.75 ticks  (745.33 ticks/sec)

CPLEX> Dual simplex - Optimal:  Objective =  2.5290417333e+02
CPLEX> 